JulietBench/Juliet_Based_Patch_Bench/FFmpeg/CWE-189-Numeric-Errors/CVE_2013_0875_1ac0fa50eff30d413206cffa5f47f7fe6d4849b1/Resultff_add_png_paeth_prediction_SnippetEQ.smt2
; benchmark generated from python API
(set-info :status unknown)
(declare-fun R () (_ BitVec 32))
(declare-fun rdi () (_ BitVec 64))
(declare-fun rsi () (_ BitVec 64))
(assert
 (let (($x25 (= (_ bv0 32) R)))
 (let ((?x15 ((_ extract 31 0) rdi)))
 (let ((?x7 ((_ extract 31 0) rsi)))
 (let ((?x30 (bvsub ?x7 ?x15)))
 (let (($x40 (bvsgt (_ bv0 32) ?x30)))
 (let (($x41 (and $x40 $x25)))
 (let (($x34 (bvsle (_ bv0 32) ?x30)))
 (let (($x38 (bvsgt ?x15 ?x30)))
 (let (($x39 (and $x38 $x34 $x25)))
 (let (($x8 (= R ?x15)))
 (let (($x33 (bvsle ?x15 ?x30)))
 (let ((?x19 (bvmul (_ bv2 32) ?x15)))
 (let (($x36 (bvsgt ?x19 ?x30)))
 (let (($x37 (and $x36 $x33 $x34 $x8)))
 (let ((?x13 (bvmul (_ bv3 32) ?x15)))
 (let (($x11 (= R ?x13)))
 (let (($x32 (bvsle ?x19 ?x30)))
 (let (($x31 (bvsgt ?x13 ?x30)))
 (let (($x35 (and $x31 $x32 $x33 $x34 $x11)))
 (let (($x42 (or $x35 $x37 $x39 $x41)))
 (let (($x27 (bvsgt (_ bv0 32) ?x7)))
 (let (($x28 (and $x27 $x25)))
 (let (($x14 (bvsle (_ bv0 32) ?x7)))
 (let (($x24 (bvsgt ?x15 ?x7)))
 (let (($x26 (and $x24 $x14 $x25)))
 (let (($x17 (bvsle ?x15 ?x7)))
 (let (($x9 (bvsgt ?x19 ?x7)))
 (let (($x23 (and $x9 $x17 $x14 $x8)))
 (let (($x18 (bvsle ?x19 ?x7)))
 (let (($x21 (bvsgt ?x13 ?x7)))
 (let (($x10 (and $x21 $x18 $x17 $x14 $x11)))
 (let (($x29 (or $x10 $x23 $x26 $x28)))
 (and $x29 $x42))))))))))))))))))))))))))))))))))
(check-sat)
